Route #1: 51 5 8 27 29 10 44
Route #2: 47 37 33 35 7 43 2
Route #3: 48 38 34 32 19 15 46 13 16 9
Route #4: 26 22 49 17 50 12 23 45 4
Route #5: 21 14 39 11 28 24 31 3
Route #6: 42 20 30 18 1 36
Route #7: 41 25 6 40
Cost 762